Problem:    Editoria
Rows:       28
Columns:    38 (36 integer, 36 binary)
Non-zeros:  198
Status:     INTEGER OPTIMAL
Objective:  z = 10 (MAXimum)

   No.   Row name        Activity     Lower bound   Upper bound
------ ------------    ------------- ------------- -------------
     1 ass[1]                      1                           1 
     2 ass[2]                      1                           1 
     3 ass[3]                      1                           1 
     4 ass[4]                      1                           1 
     5 ass[5]                      1                           1 
     6 ass[6]                      0                           1 
     7 ass[7]                      1                           1 
     8 ass[8]                      1                           1 
     9 ass[9]                      1                           1 
    10 ass[10]                     0                           1 
    11 ass[11]                     1                           1 
    12 ass[12]                     1                           1 
    13 limitePagine[1]
                                  43                          44 
    14 limitePagine[2]
                                  43                          44 
    15 limitePagine[3]
                                  41                          44 
    16 urgenza[1]                  1             1             = 
    17 urgenza[3]                  1             1             = 
    18 urgenza[5]                  1             1             = 
    19 urgenza[8]                  1             1             = 
    20 urgenza[9]                  1             1             = 
    21 z                          10                             
    22 w                          43                             
    23 upper[1]                    0            -0               
    24 upper[2]                    0            -0               
    25 upper[3]                    2            -0               
    26 lower[1]                  -43                          -0 
    27 lower[2]                  -43                          -0 
    28 lower[3]                  -41                          -0 

   No. Column name       Activity     Lower bound   Upper bound
------ ------------    ------------- ------------- -------------
     1 x[1,1]       *              0             0             1 
     2 x[1,2]       *              1             0             1 
     3 x[1,3]       *              0             0             1 
     4 x[2,1]       *              0             0             1 
     5 x[2,2]       *              1             0             1 
     6 x[2,3]       *              0             0             1 
     7 x[3,1]       *              1             0             1 
     8 x[3,2]       *              0             0             1 
     9 x[3,3]       *              0             0             1 
    10 x[4,1]       *              1             0             1 
    11 x[4,2]       *              0             0             1 
    12 x[4,3]       *              0             0             1 
    13 x[5,1]       *              0             0             1 
    14 x[5,2]       *              1             0             1 
    15 x[5,3]       *              0             0             1 
    16 x[6,1]       *              0             0             1 
    17 x[6,2]       *              0             0             1 
    18 x[6,3]       *              0             0             1 
    19 x[7,1]       *              0             0             1 
    20 x[7,2]       *              0             0             1 
    21 x[7,3]       *              1             0             1 
    22 x[8,1]       *              0             0             1 
    23 x[8,2]       *              1             0             1 
    24 x[8,3]       *              0             0             1 
    25 x[9,1]       *              1             0             1 
    26 x[9,2]       *              0             0             1 
    27 x[9,3]       *              0             0             1 
    28 x[10,1]      *              0             0             1 
    29 x[10,2]      *              0             0             1 
    30 x[10,3]      *              0             0             1 
    31 x[11,1]      *              0             0             1 
    32 x[11,2]      *              0             0             1 
    33 x[11,3]      *              1             0             1 
    34 x[12,1]      *              0             0             1 
    35 x[12,2]      *              0             0             1 
    36 x[12,3]      *              1             0             1 
    37 U                          43             0               
    38 L                           0             0               

Integer feasibility conditions:

KKT.PE: max.abs.err = 0.00e+000 on row 0
        max.rel.err = 0.00e+000 on row 0
        High quality

KKT.PB: max.abs.err = 0.00e+000 on row 0
        max.rel.err = 0.00e+000 on row 0
        High quality

End of output
